50, 620
46, 41
29, 24
44, 39
53, 48
13, 8
48, 43
46, 41
46, 41
55, 50
10, 5
14, 9
8, 3
29, 24
15, 10
51, 46
46, 41
16, 11
45, 40
23, 18
24, 19
7, 2
48, 43
44, 39
16, 11
20, 15
20, 15
30, 25
52, 47
8, 3
32, 27
51, 46
52, 47
10, 5
10, 5
45, 40
33, 28
22, 17
26, 21
15, 10
7, 2
35, 30
50, 45
15, 10
6, 1
6, 1
46, 41
41, 36
30, 25
9, 4
44, 39
